Route #1: 1 7 1 
Route #2: 1 52 41 45 4 50 17 2 43 2 24 50 25 51 26 51 19 51 33 41 18 1 
Route #3: 1 5 46 31 29 22 29 3 29 23 2 34 2 42 44 2 29 49 46 1 
Route #4: 1 35 47 36 15 36 20 36 54 12 39 11 39 41 40 41 10 41 13 27 1 
Route #5: 1 46 30 6 38 48 38 21 38 37 38 16 14 55 14 28 53 9 36 8 1 
Cost 726.0
